200
400
279
278
276
275
275
275
275
274
274
273
272
268
268
267
267
267
263
262
262
261
261
260
260
259
258
258
256
256
253
251
250
249
248
247
246
246
245
245
245
244
243
242
241
241
240
240
240
239
239
239
239
238
237
236
235
235
233
233
231
230
230
229
228
223
222
221
220
220
220
218
218
218
217
216
215
215
214
212
210
210
209
207
202
202
201
201
199
198
197
197
196
196
195
194
194
193
192
192
191
190
186
185
184
182
182
181
181
181
180
178
176
176
168
167
167
167
164
163
163
162
162
162
160
160
159
159
157
156
156
153
151
151
150
150
149
146
145
145
143
143
143
140
140
140
140
139
139
139
139
139
138
135
133
132
132
132
131
129
126
123
122
121
120
118
117
116
116
114
114
112
106
104
100
100
98
97
97
96
95
95
93
92
91
90
90
89
89
88
87
87
86
84
83
83
83
83
82
81
80
80
